toy layered cell (synthetic)
   1.00000000000000
    6.2999999999999998    0.0000000000000000    0.0000000000000000
    0.0000000000000000    6.2999999999999998    0.0000000000000000
    0.0000000000000000    0.0000000000000000   13.5000000000000000
   Pb   I    C    N    H 
      1      4      2      2     12
Direct
   0.0000000000000000   0.0000000000000000   0.5000000000000000
   0.4999999999999999   0.0000000000000000   0.5000000000000000
   0.0000000000000000   0.4999999999999999   0.5000000000000000
   0.0000000000000000   0.0000000000000000   0.7370370370370369
   0.0000000000000000   0.0000000000000000   0.2629629629629630
   0.4999999999999999   0.4999999999999999   0.8755555555555555
   0.4999999999999999   0.4999999999999999   0.1244444444444444
   0.4999999999999999   0.4999999999999999   0.7666666666666666
   0.4999999999999999   0.4999999999999999   0.2333333333333333
   0.6523809523809523   0.4999999999999999   0.7414814814814814
   0.6434777839281085   0.5783822705971950   0.9022222222222221
   0.4238095238095237   0.6319657758147715   0.7414814814814814
   0.3603800704924687   0.5850642704618391   0.9022222222222221
   0.4238095238095237   0.3680342241852284   0.7414814814814814
   0.4961421455794227   0.3365534589409657   0.9022222222222221
   0.6523809523809523   0.4999999999999999   0.2585185185185185
   0.6434777839281085   0.5783822705971950   0.0977777777777778
   0.4238095238095237   0.6319657758147715   0.2585185185185185
   0.3603800704924687   0.5850642704618391   0.0977777777777778
   0.4238095238095237   0.3680342241852284   0.2585185185185185
   0.4961421455794227   0.3365534589409657   0.0977777777777778
