       N       E                     dE             d eps       ncg     rms          rms(c)
DAV:   1    -1.044540802086E+03   -1.04454E+03   -1.04454E+02   960   0.123E+01
DAV:   2    -1.116136167649E+03   -7.15954E+01   -7.15954E+00   960   0.123E+01
DAV:   3    -1.159560951955E+03   -4.34248E+01   -4.34248E+00   960   0.123E+01
DAV:   4    -1.185899415029E+03   -2.63385E+01   -2.63385E+00   960   0.123E+01
DAV:   5    -1.201874500413E+03   -1.59751E+01   -1.59751E+00   960   0.123E+01
DAV:   6    -1.211563879490E+03   -9.68938E+00   -9.68938E-01   960   0.123E+01
DAV:   7    -1.217440784973E+03   -5.87691E+00   -5.87691E-01   960   0.123E+01
DAV:   8    -1.221005308333E+03   -3.56452E+00   -3.56452E-01   960   0.123E+01
DAV:   9    -1.223167301039E+03   -2.16199E+00   -2.16199E-01   960   0.123E+01
DAV:  10    -1.224478615900E+03   -1.31131E+00   -1.31131E-01   960   0.123E+01
DAV:  11    -1.247631019852E+03   -2.31524E+01   -2.31524E+00   960   0.123E+01
DAV:  12    -1.226500000000E+03    2.11310E+01    2.11310E+00   960   0.123E+01
DAV:  13    -1.204676159825E+03    2.18238E+01    2.18238E+00   960   0.123E+01
DAV:  14    -1.248670250337E+03   -4.39941E+01   -4.39941E+00   960   0.123E+01
DAV:  15    -1.226500000000E+03    2.21703E+01    2.21703E+00   960   0.123E+01
DAV:  16    -1.203636929340E+03    2.28631E+01    2.28631E+00   960   0.123E+01
DAV:  17    -1.249709480821E+03   -4.60726E+01   -4.60726E+00   960   0.123E+01
DAV:  18    -1.226500000000E+03    2.32095E+01    2.32095E+00   960   0.123E+01
DAV:  19    -1.202597698856E+03    2.39023E+01    2.39023E+00   960   0.123E+01
DAV:  20    -1.250748711306E+03   -4.81510E+01   -4.81510E+00   960   0.123E+01
DAV:  21    -1.226500000000E+03    2.42487E+01    2.42487E+00   960   0.123E+01
DAV:  22    -1.201558468371E+03    2.49415E+01    2.49415E+00   960   0.123E+01
DAV:  23    -1.251787941791E+03   -5.02295E+01   -5.02295E+00   960   0.123E+01
DAV:  24    -1.226500000000E+03    2.52879E+01    2.52879E+00   960   0.123E+01
DAV:  25    -1.200519237886E+03    2.59808E+01    2.59808E+00   960   0.123E+01
DAV:  26    -1.252827172275E+03   -5.23079E+01   -5.23079E+00   960   0.123E+01
DAV:  27    -1.226500000000E+03    2.63272E+01    2.63272E+00   960   0.123E+01
DAV:  28    -1.199480007402E+03    2.70200E+01    2.70200E+00   960   0.123E+01
DAV:  29    -1.253866402760E+03   -5.43864E+01   -5.43864E+00   960   0.123E+01
DAV:  30    -1.226500000000E+03    2.73664E+01    2.73664E+00   960   0.123E+01
DAV:  31    -1.198440776917E+03    2.80592E+01    2.80592E+00   960   0.123E+01
DAV:  32    -1.254905633244E+03   -5.64649E+01   -5.64649E+00   960   0.123E+01
DAV:  33    -1.226500000000E+03    2.84056E+01    2.84056E+00   960   0.123E+01
DAV:  34    -1.197401546433E+03    2.90985E+01    2.90985E+00   960   0.123E+01
DAV:  35    -1.255944863729E+03   -5.85433E+01   -5.85433E+00   960   0.123E+01
DAV:  36    -1.226500000000E+03    2.94449E+01    2.94449E+00   960   0.123E+01
DAV:  37    -1.196362315948E+03    3.01377E+01    3.01377E+00   960   0.123E+01
DAV:  38    -1.256984094213E+03   -6.06218E+01   -6.06218E+00   960   0.123E+01
DAV:  39    -1.226500000000E+03    3.04841E+01    3.04841E+00   960   0.123E+01
DAV:  40    -1.195323085464E+03    3.11769E+01    3.11769E+00   960   0.123E+01
DAV:  41    -1.258023324698E+03   -6.27002E+01   -6.27002E+00   960   0.123E+01
DAV:  42    -1.226500000000E+03    3.15233E+01    3.15233E+00   960   0.123E+01
DAV:  43    -1.194283854979E+03    3.22161E+01    3.22161E+00   960   0.123E+01
DAV:  44    -1.259062555182E+03   -6.47787E+01   -6.47787E+00   960   0.123E+01
DAV:  45    -1.226500000000E+03    3.25626E+01    3.25626E+00   960   0.123E+01
DAV:  46    -1.193244624495E+03    3.32554E+01    3.32554E+00   960   0.123E+01
DAV:  47    -1.260101785667E+03   -6.68572E+01   -6.68572E+00   960   0.123E+01
DAV:  48    -1.226500000000E+03    3.36018E+01    3.36018E+00   960   0.123E+01
DAV:  49    -1.192205394010E+03    3.42946E+01    3.42946E+00   960   0.123E+01
DAV:  50    -1.261141016151E+03   -6.89356E+01   -6.89356E+00   960   0.123E+01
DAV:  51    -1.226500000000E+03    3.46410E+01    3.46410E+00   960   0.123E+01
DAV:  52    -1.191166163526E+03    3.53338E+01    3.53338E+00   960   0.123E+01
DAV:  53    -1.262180246636E+03   -7.10141E+01   -7.10141E+00   960   0.123E+01
DAV:  54    -1.226500000000E+03    3.56802E+01    3.56802E+00   960   0.123E+01
DAV:  55    -1.190126933041E+03    3.63731E+01    3.63731E+00   960   0.123E+01
DAV:  56    -1.263219477120E+03   -7.30925E+01   -7.30925E+00   960   0.123E+01
DAV:  57    -1.226500000000E+03    3.67195E+01    3.67195E+00   960   0.123E+01
DAV:  58    -1.189087702557E+03    3.74123E+01    3.74123E+00   960   0.123E+01
DAV:  59    -1.264258707605E+03   -7.51710E+01   -7.51710E+00   960   0.123E+01
DAV:  60    -1.226500000000E+03    3.77587E+01    3.77587E+00   960   0.123E+01
   1 F= -1.22650000E+03 E0= -1.22649900E+03  d E =-1.226500E+03
