toy layered hybrid bulk cell (synthetic)
   1.00000000000000
    6.2999999999999998    0.0000000000000000    0.0000000000000000
    0.0000000000000000    6.2999999999999998    0.0000000000000000
    0.0000000000000000    0.0000000000000000   13.5000000000000000
   Pb   I    C    N    H 
      1      4      2      2     12
Direct
   0.0000000000000000   0.0000000000000000   0.3185185185185185
   0.4999999999999999   0.0000000000000000   0.3185185185185185
   0.0000000000000000   0.4999999999999999   0.3185185185185185
   0.0000000000000000   0.0000000000000000   0.5555555555555556
   0.0000000000000000   0.0000000000000000   0.0814814814814814
   0.4999999999999999   0.4999999999999999   0.6940740740740741
   0.4999999999999999   0.4999999999999999   0.9429629629629630
   0.4999999999999999   0.4999999999999999   0.5851851851851851
   0.4999999999999999   0.4999999999999999   0.0518518518518518
   0.6523809523809523   0.4999999999999999   0.5600000000000001
   0.6434777839281085   0.5783822705971950   0.7207407407407407
   0.4238095238095237   0.6319657758147715   0.5600000000000001
   0.3603800704924687   0.5850642704618391   0.7207407407407407
   0.4238095238095237   0.3680342241852284   0.5600000000000001
   0.4961421455794227   0.3365534589409657   0.7207407407407407
   0.6523809523809523   0.4999999999999999   0.0770370370370370
   0.6434777839281085   0.5783822705971950   0.9162962962962963
   0.4238095238095237   0.6319657758147715   0.0770370370370370
   0.3603800704924687   0.5850642704618391   0.9162962962962963
   0.4238095238095237   0.3680342241852284   0.0770370370370370
   0.4961421455794227   0.3365534589409657   0.9162962962962963
